LAMMPS (6 Dec 2012)
atom_style	atomic

read_data	LJ.lammps
  orthogonal box = (0 0 0) to (10 10 10)
  1 by 1 by 1 MPI processor grid
  125 atoms
  125 velocities

pair_style	lj/cut 2.5
pair_coeff	1 1 1.0 1.0
pair_coeff	1 2 1.5 0.5
pair_coeff	2 2 0.8 0.88

timestep	0.003

run_style 	verlet
fix		1 all nve

thermo		1
thermo_style	custom step ke pe etotal
thermo_modify	norm no
dump		1 all xyz 1 output.lammps

run		100
Memory usage per processor = 1.57814 Mbytes
Step KinEng PotEng TotEng 
       0      4.02075   -9.7074357   -5.6866857 
       1    4.0203704   -9.7070562   -5.6866857 
       2    4.0200485   -9.7067342   -5.6866857 
       3    4.0197842   -9.7064699   -5.6866857 
       4    4.0195774   -9.7062632   -5.6866857 
       5    4.0194283    -9.706114   -5.6866857 
       6    4.0193366   -9.7060223   -5.6866857 
       7    4.0193026   -9.7059883   -5.6866857 
       8     4.019326   -9.7060117   -5.6866857 
       9     4.019407   -9.7060927   -5.6866857 
      10    4.0195456   -9.7062313   -5.6866857 
      11    4.0197416   -9.7064273   -5.6866857 
      12    4.0199952    -9.706681   -5.6866857 
      13    4.0203064   -9.7069921   -5.6866857 
      14    4.0206752   -9.7073609   -5.6866857 
      15    4.0211015   -9.7077872   -5.6866857 
      16    4.0215854   -9.7082711   -5.6866857 
      17     4.022127   -9.7088127   -5.6866857 
      18    4.0227262   -9.7094119   -5.6866857 
      19     4.023383   -9.7100687   -5.6866857 
      20    4.0240976   -9.7107833   -5.6866857 
      21    4.0248699   -9.7115556   -5.6866857 
      22       4.0257   -9.7123857   -5.6866857 
      23    4.0265878   -9.7132735   -5.6866857 
      24    4.0275336   -9.7142193   -5.6866857 
      25    4.0285372   -9.7152229   -5.6866857 
      26    4.0295988   -9.7162844   -5.6866857 
      27    4.0307183    -9.717404   -5.6866857 
      28    4.0318959   -9.7185816   -5.6866857 
      29    4.0331317   -9.7198174   -5.6866857 
      30    4.0344256   -9.7211112   -5.6866857 
      31    4.0357777   -9.7224634   -5.6866857 
      32    4.0371881   -9.7238738   -5.6866857 
      33    4.0386569   -9.7253426   -5.6866857 
      34    4.0401841   -9.7268698   -5.6866857 
      35    4.0417699   -9.7284555   -5.6866856 
      36    4.0434142   -9.7300999   -5.6866856 
      37    4.0451172   -9.7318029   -5.6866856 
      38     4.046879   -9.7335646   -5.6866856 
      39    4.0486996   -9.7353853   -5.6866856 
      40    4.0505792   -9.7372648   -5.6866856 
      41    4.0525178   -9.7392034   -5.6866856 
      42    4.0545155   -9.7412011   -5.6866856 
      43    4.0565725   -9.7432581   -5.6866856 
      44    4.0586888   -9.7453744   -5.6866856 
      45    4.0608646   -9.7475501   -5.6866856 
      46    4.0630999   -9.7497854   -5.6866856 
      47    4.0653948   -9.7520804   -5.6866856 
      48    4.0677496   -9.7544352   -5.6866856 
      49    4.0701643   -9.7568498   -5.6866856 
      50     4.072639   -9.7593245   -5.6866855 
      51    4.0751738   -9.7618593   -5.6866855 
      52    4.0777689   -9.7644545   -5.6866855 
      53    4.0804245     -9.76711   -5.6866855 
      54    4.0831406   -9.7698261   -5.6866855 
      55    4.0859174   -9.7726029   -5.6866855 
      56    4.0887551   -9.7754406   -5.6866855 
      57    4.0916537   -9.7783392   -5.6866855 
      58    4.0946135   -9.7812989   -5.6866855 
      59    4.0976345     -9.78432   -5.6866855 
      60     4.100717   -9.7874025   -5.6866855 
      61    4.1038612   -9.7905466   -5.6866854 
      62    4.1070671   -9.7937525   -5.6866854 
      63    4.1103349   -9.7970203   -5.6866854 
      64    4.1136648   -9.8003502   -5.6866854 
      65    4.1170571   -9.8037425   -5.6866854 
      66    4.1205117   -9.8071971   -5.6866854 
      67    4.1240291   -9.8107145   -5.6866854 
      68    4.1276093   -9.8142946   -5.6866854 
      69    4.1312524   -9.8179378   -5.6866853 
      70    4.1349589   -9.8216442   -5.6866853 
      71    4.1387287    -9.825414   -5.6866853 
      72    4.1425621   -9.8292474   -5.6866853 
      73    4.1464593   -9.8331446   -5.6866853 
      74    4.1504206   -9.8371059   -5.6866853 
      75    4.1544461   -9.8411314   -5.6866853 
      76    4.1585361   -9.8452213   -5.6866853 
      77    4.1626907   -9.8493759   -5.6866852 
      78    4.1669102   -9.8535954   -5.6866852 
      79    4.1711948   -9.8578801   -5.6866852 
      80    4.1755448     -9.86223   -5.6866852 
      81    4.1799604   -9.8666456   -5.6866852 
      82    4.1844418    -9.871127   -5.6866852 
      83    4.1889893   -9.8756744   -5.6866851 
      84    4.1936031   -9.8802882   -5.6866851 
      85    4.1982835   -9.8849686   -5.6866851 
      86    4.2030307   -9.8897158   -5.6866851 
      87    4.2078449     -9.89453   -5.6866851 
      88    4.2127266   -9.8994116   -5.6866851 
      89    4.2176758   -9.9043609    -5.686685 
      90     4.222693    -9.909378    -5.686685 
      91    4.2277783   -9.9144633    -5.686685 
      92     4.232932    -9.919617    -5.686685 
      93    4.2381546   -9.9248395    -5.686685 
      94    4.2434461    -9.930131   -5.6866849 
      95    4.2488069   -9.9354919   -5.6866849 
      96    4.2542374   -9.9409223   -5.6866849 
      97    4.2597378   -9.9464227   -5.6866849 
      98    4.2653085   -9.9519934   -5.6866849 
      99    4.2709497   -9.9576346   -5.6866848 
     100    4.2766618   -9.9633466   -5.6866848 
Loop time of 0.0161841 on 1 procs for 100 steps with 125 atoms

Pair  time (%) = 0.00177526 (10.9692)
Neigh time (%) = 0 (0)
Comm  time (%) = 0.000632048 (3.90536)
Outpt time (%) = 0.0133088 (82.2336)
Other time (%) = 0.000468016 (2.89183)

Nlocal:    125 ave 125 max 125 min
Histogram: 1 0 0 0 0 0 0 0 0 0
Nghost:    387 ave 387 max 387 min
Histogram: 1 0 0 0 0 0 0 0 0 0
Neighs:    375 ave 375 max 375 min
Histogram: 1 0 0 0 0 0 0 0 0 0

Total # of neighbors = 375
Ave neighs/atom = 3
Neighbor list builds = 0
Dangerous builds = 0

