LAMMPS (6 Dec 2012)
atom_style	bond

read_data	fene.lammps
  1 = max bonds/atom
  orthogonal box = (0 0 0) to (10 10 10)
  1 by 1 by 1 MPI processor grid
  125 atoms
  125 velocities
  3 bonds
  2 = max # of 1-2 neighbors
  1 = max # of 1-3 neighbors
  2 = max # of 1-4 neighbors
  3 = max # of special neighbors

pair_style	lj/cut 2.5
pair_coeff	1 1 1.0 1.0
pair_coeff	1 2 1.5 0.5
pair_coeff	2 2 0.8 0.88

bond_style	fene
bond_coeff	1 1.0 3.0 1.0 1.0

timestep	0.003

run_style 	verlet
fix		1 all nve

neigh_modify	every 1
thermo		1
thermo_style	custom step ke pe etotal
thermo_modify	norm no
dump		1 all xyz 1 output.lammps
dump_modify 	1 element A B

run		1000
WARNING: Use special bonds = 0,1,1 with bond style fene (bond_fene.cpp:187)
Memory usage per processor = 2.2739 Mbytes
Step KinEng PotEng TotEng 
       0       4.1427   0.51324142    4.6559414 
       1    4.1423931    0.5135483    4.6559414 
       2    4.1423615   0.51357987    4.6559414 
       3    4.1426052   0.51333624    4.6559414 
       4    4.1431238   0.51281755    4.6559414 
       5    4.1439174   0.51202398    4.6559414 
       6    4.1449856   0.51095576    4.6559414 
       7    4.1463282   0.50961315    4.6559413 
       8    4.1479449   0.50799643    4.6559413 
       9    4.1498354   0.50610593    4.6559413 
      10    4.1519993   0.50394201    4.6559413 
      11    4.1544362   0.50150507    4.6559412 
      12    4.1571457   0.49879554    4.6559412 
      13    4.1601273   0.49581388    4.6559412 
      14    4.1633806   0.49256059    4.6559411 
      15    4.1669049    0.4890362    4.6559411 
      16    4.1706998   0.48524128    4.6559411 
      17    4.1747646   0.48117642     4.655941 
      18    4.1790987   0.47684226     4.655941 
      19    4.1837015   0.47223946    4.6559409 
      20    4.1885722    0.4673687    4.6559409 
      21    4.1937101   0.46223073    4.6559409 
      22    4.1991145   0.45682628    4.6559408 
      23    4.2047846   0.45115616    4.6559408 
      24    4.2107195   0.44522117    4.6559407 
      25    4.2169185   0.43902215    4.6559407 
      26    4.2233806      0.43256    4.6559406 
      27    4.2301049    0.4258356    4.6559405 
      28    4.2370906   0.41884988    4.6559405 
      29    4.2443366   0.41160381    4.6559404 
      30     4.251842   0.40409837    4.6559404 
      31    4.2596057   0.39633456    4.6559403 
      32    4.2676268   0.38831342    4.6559402 
      33    4.2759041   0.38003602    4.6559402 
      34    4.2844367   0.37150342    4.6559401 
      35    4.2932233   0.36271675      4.65594 
      36    4.3022628   0.35367713    4.6559399 
      37    4.3115542   0.34438571    4.6559399 
      38    4.3210961   0.33484366    4.6559398 
      39    4.3308875   0.32505218    4.6559397 
      40    4.3409272   0.31501249    4.6559396 
      41    4.3512138   0.30472581    4.6559396 
      42    4.3617461   0.29419341    4.6559395 
      43    4.3725229   0.28341654    4.6559394 
      44    4.3835428    0.2723965    4.6559393 
      45    4.3948047   0.26113459    4.6559393 
      46     4.406307   0.24963213    4.6559392 
      47    4.4180486   0.23789046    4.6559391 
      48    4.4300281   0.22591093     4.655939 
      49     4.442244    0.2136949    4.6559389 
      50    4.4546951   0.20124375    4.6559388 
      51    4.4673799   0.18855886    4.6559387 
      52     4.480297   0.17564165    4.6559387 
      53    4.4934451   0.16249351    4.6559386 
      54    4.5068226   0.14911588    4.6559385 
      55    4.5204282   0.13551018    4.6559384 
      56    4.5342605   0.12167786    4.6559383 
      57    4.5483179   0.10762036    4.6559382 
      58     4.562599  0.093339137    4.6559381 
      59    4.5771024  0.078835661     4.655938 
      60    4.5918266  0.064111398     4.655938 
      61      4.60677  0.049167821    4.6559379 
      62    4.6219314  0.034006412    4.6559378 
      63     4.637309  0.018628652    4.6559377 
      64    4.6529016 0.0030360293    4.6559376 
      65    4.6687075 -0.012769967    4.6559375 
      66    4.6847253 -0.028787845    4.6559374 
      67    4.7009534 -0.045016111    4.6559373 
      68    4.7173905 -0.061453271    4.6559372 
      69     4.734035 -0.078097831    4.6559371 
      70    4.7508854 -0.094948296    4.6559371 
      71    4.7679401  -0.11200317     4.655937 
      72    4.7851978  -0.12926097    4.6559369 
      73     4.802657   -0.1467202    4.6559368 
      74    4.8203161  -0.16437937    4.6559367 
      75    4.8381736  -0.18223701    4.6559366 
      76    4.8562281  -0.20029162    4.6559365 
      77    4.8744782  -0.21854174    4.6559364 
      78    4.8929222  -0.23698589    4.6559363 
      79    4.9115589  -0.25562261    4.6559363 
      80    4.9303866  -0.27445043    4.6559362 
      81     4.949404  -0.29346792    4.6559361 
      82    4.9686096  -0.31267361     4.655936 
      83     4.988002  -0.33206607    4.6559359 
      84    5.0075797  -0.35164387    4.6559358 
      85    5.0273413  -0.37140558    4.6559357 
      86    5.0472855  -0.39134979    4.6559357 
      87    5.0674107  -0.41147509    4.6559356 
      88    5.0877156  -0.43178009    4.6559355 
      89    5.1081988   -0.4522634    4.6559354 
      90     5.128859  -0.47292365    4.6559353 
      91    5.1496947  -0.49375946    4.6559353 
      92    5.1707047  -0.51476948    4.6559352 
      93    5.1918875  -0.53595238    4.6559351 
      94    5.2132418   -0.5573068     4.655935 
      95    5.2347664  -0.57883145     4.655935 
      96    5.2564599    -0.600525    4.6559349 
      97     5.278321  -0.62238616    4.6559348 
      98    5.3003484  -0.64441365    4.6559347 
      99    5.3225409   -0.6666062    4.6559347 
     100    5.3448971  -0.68896255    4.6559346 
     101     5.367416  -0.71148146    4.6559345 
     102    5.3900961   -0.7341617    4.6559344 
     103    5.4129364  -0.75700205    4.6559344 
     104    5.4359356  -0.78000132    4.6559343 
     105    5.4590926  -0.80315831    4.6559342 
     106     5.482406  -0.82647186    4.6559342 
     107    5.5058749  -0.84994081    4.6559341 
     108    5.5294981  -0.87356401    4.6559341 
     109    5.5532743  -0.89734034     4.655934 
     110    5.5772026  -0.92126869    4.6559339 
     111    5.6012818  -0.94534796    4.6559339 
     112    5.6255109  -0.96957707    4.6559338 
     113    5.6498887  -0.99395495    4.6559338 
     114    5.6744143   -1.0184806    4.6559337 
     115    5.6990865   -1.0431529    4.6559336 
     116    5.7239044   -1.0679709    4.6559336 
     117    5.7488671   -1.0929335    4.6559335 
     118    5.7739734   -1.1180399    4.6559335 
     119    5.7992224    -1.143289    4.6559334 
     120    5.8246132   -1.1686798    4.6559334 
     121    5.8501448   -1.1942115    4.6559333 
     122    5.8758164   -1.2198831    4.6559333 
     123     5.901627   -1.2456938    4.6559332 
     124    5.9275757   -1.2716425    4.6559332 
     125    5.9536617   -1.2977286    4.6559331 
     126    5.9798841    -1.323951    4.6559331 
     127    6.0062421   -1.3503091    4.6559331 
     128    6.0327349   -1.3768019     4.655933 
     129    6.0593616   -1.4034287     4.655933 
     130    6.0861215   -1.4301886    4.6559329 
     131    6.1130139    -1.457081    4.6559329 
     132    6.1400379    -1.484105    4.6559329 
     133    6.1671928     -1.51126    4.6559328 
     134    6.1944779   -1.5385451    4.6559328 
     135    6.2218926   -1.5659598    4.6559328 
     136    6.2494361   -1.5935034    4.6559327 
     137    6.2771751   -1.6375348    4.6396403 
     138    6.3051118   -1.6658563    4.6392555 
     139    6.3331793   -1.6939239    4.6392555 
     140    6.3613754   -1.7221199    4.6392554 
     141    6.3896994    -1.750444    4.6392554 
     142    6.4181509   -1.7788955    4.6392554 
     143    6.4467292   -1.8074738    4.6392554 
     144    6.4754338   -1.8361784    4.6392554 
     145    6.5042643   -1.8650089    4.6392553 
     146    6.5332201   -1.8939647    4.6392553 
     147    6.5623007   -1.9230454    4.6392553 
     148    6.5915058   -1.9522505    4.6392553 
     149    6.6208348   -1.9815795    4.6392553 
     150    6.6502873   -2.0110321    4.6392553 
     151     6.679863   -2.0406078    4.6392552 
     152    6.7095614   -2.0703062    4.6392552 
     153    6.7393822    -2.100127    4.6392552 
     154     6.769325   -2.1300698    4.6392552 
     155    6.7993894   -2.1601342    4.6392552 
     156    6.8295752     -2.19032    4.6392552 
     157    6.8599419   -2.2369974    4.6229445 
     158    6.8904902   -2.2675457    4.6229445 
     159    6.9211606   -2.2982161    4.6229445 
     160     6.951953   -2.3290086    4.6229445 
     161    6.9828672   -2.3599227    4.6229445 
     162    7.0139028   -2.3909583    4.6229445 
     163    7.0450597   -2.4221153    4.6229445 
     164    7.0763394   -2.4537774    4.6225619 
     165    7.1077416   -2.4851796    4.6225619 
     166    7.1392646   -2.5167027    4.6225619 
     167    7.1709085   -2.5483465    4.6225619 
     168     7.202673    -2.580111    4.6225619 
     169     7.234558   -2.6119961     4.622562 
     170    7.2665636   -2.6440016     4.622562 
     171    7.2986896   -2.6761276     4.622562 
     172     7.330936    -2.708374     4.622562 
     173    7.3633028   -2.7407408     4.622562 
     174      7.39579    -2.773228     4.622562 
     175    7.4283976   -2.8058356     4.622562 
     176    7.4611257   -2.8385636     4.622562 
     177    7.4939742   -2.8714122    4.6225621 
     178    7.5269434   -2.9043813    4.6225621 
     179    7.5600332   -2.9374711    4.6225621 
     180    7.5932438   -2.9706816    4.6225621 
     181    7.6265753   -3.0040131    4.6225622 
     182    7.6600278   -3.0374656    4.6225622 
     183    7.6936016   -3.0710394    4.6225622 
     184    7.7272968   -3.1047345    4.6225622 
     185    7.7611158   -3.1381715    4.6229443 
     186    7.7950612   -3.1717342     4.623327 
     187     7.829131   -3.2058039    4.6233271 
     188     7.863323   -3.2399959    4.6233271 
     189    7.8976972   -3.2906952    4.6070021 
     190    7.9322552   -3.3252531    4.6070021 
     191    7.9669381   -3.3599359    4.6070021 
     192    8.0017463   -3.3947441    4.6070022 
     193    8.0366802    -3.429678    4.6070022 
     194    8.0717402   -3.4647379    4.6070022 
     195    8.1069266   -3.4999244    4.6070023 
     196      8.14224   -3.5352377    4.6070023 
     197    8.1776808   -3.5706784    4.6070024 
     198    8.2132494    -3.606247    4.6070024 
     199    8.2489464   -3.6419439    4.6070025 
     200    8.2847722   -3.6777697    4.6070025 
     201    8.3207275   -3.7137249    4.6070026 
     202    8.3568128   -3.7498101    4.6070026 
     203    8.3930286   -3.7860259    4.6070027 
     204    8.4294273   -3.8387184    4.5907089 
     205    8.4660104   -3.8753014     4.590709 
     206    8.5027271    -3.912018    4.5907091 
     207    8.5395781   -3.9488689    4.5907091 
     208    8.5765641   -3.9858549    4.5907092 
     209    8.6136858   -4.0229766    4.5907092 
     210     8.650944   -4.0602347    4.5907093 
     211    8.6883395   -4.0976301    4.5907094 
     212    8.7258731   -4.1351636    4.5907094 
     213    8.7635455    -4.172836    4.5907095 
     214    8.8013577   -4.2106481    4.5907096 
     215    8.8393105   -4.2486008    4.5907097 
     216    8.8774048   -4.2866951    4.5907097 
     217    8.9156416   -4.3249318    4.5907098 
     218    8.9540218   -4.3633119    4.5907099 
     219    8.9925464   -4.4018364      4.59071 
     220    9.0312288   -4.4477495    4.5834793 
     221    9.0700702   -4.4865908    4.5834794 
     222    9.1090592   -4.5255797    4.5834795 
     223    9.1481969   -4.5647173    4.5834796 
     224    9.1874845   -4.6040048    4.5834797 
     225    9.2269232   -4.6434434    4.5834798 
     226     9.266514   -4.6830341    4.5834799 
     227    9.3062583   -4.7227784      4.58348 
     228    9.3461574   -4.7626773    4.5834801 
     229    9.3862131   -4.8031169    4.5830962 
     230    9.4264275   -4.8437155     4.582712 
     231    9.4668012   -4.8840892    4.5827121 
     232    9.5073352    -4.924623    4.5827122 
     233    9.5480306   -4.9653183    4.5827123 
     234    9.5888891   -5.0061766    4.5827124 
     235    9.6299257   -5.0540549    4.5758708 
     236    9.6711421   -5.0952712    4.5758709 
     237    9.7125361    -5.142737    4.5697991 
     238    9.7541093   -5.1843101    4.5697992 
     239    9.7958537   -5.2260544    4.5697993 
     240     9.837771   -5.2679715    4.5697995 
     241    9.8798629   -5.3100633    4.5697996 
     242    9.9221312   -5.3523315    4.5697997 
     243    9.9645778   -5.3947779    4.5697999 
     244    10.007205   -5.4377889    4.5694162 
     245    10.050015   -5.4805989    4.5694164 
     246    10.093009   -5.5235928    4.5694165 
     247    10.136189   -5.5667727    4.5694167 
     248    10.179557   -5.6101405    4.5694168 
     249    10.223116   -5.6536985     4.569417 
     250    10.266866   -5.6974488    4.5694171 
     251    10.310811   -5.7413934    4.5694173 
     252    10.354952   -5.7855348    4.5694175 
     253    10.399293   -5.8298751    4.5694176 
     254    10.443835   -5.8744167    4.5694178 
     255     10.48858   -5.9191621     4.569418 
     256    10.533532   -5.9641136    4.5694182 
     257    10.578694   -6.0100436      4.56865 
     258    10.624098   -6.0717704    4.5523276 
     259    10.669747   -6.1178029    4.5519441 
     260    10.715614   -6.1636695    4.5519443 
     261    10.761701    -6.209756    4.5519445 
     262     10.80802   -6.2621525    4.5458674 
     263    10.854575   -6.3090914    4.5454839 
     264    10.901383   -6.3680597    4.5333232 
     265    10.948445   -6.4151218    4.5333234 
     266    10.995744   -6.4631879    4.5325561 
     267    11.043283   -6.5107262    4.5325563 
     268    11.091101   -6.5748898    4.5162108 
     269    11.139202   -6.6229913    4.5162111 
     270    11.187555   -6.6709607    4.5165941 
     271    11.236171     -6.72603    4.5101413 
     272    11.285054   -6.7749124    4.5101416 
     273    11.334236   -6.8403829    4.4938527 
     274    11.383721   -6.8898676    4.4938529 
     275    11.433474    -6.939621    4.4938532 
     276      11.4835    -6.989647    4.4938535 
     277    11.533839   -7.0570375    4.4768014 
     278    11.584495   -7.1080766    4.4764182 
     279    11.635437   -7.1590184    4.4764185 
     280    11.686669   -7.2102501    4.4764188 
     281    11.738195   -7.2617761    4.4764191 
     282     11.79002    -7.313601    4.4764195 
     283     11.84215   -7.3661134    4.4760362 
     284    11.894332   -7.4184428    4.4758891 
     285    11.945958   -7.4863851    4.4595728 
     286    11.996597   -7.5370332    4.4595641 
     287     12.04616   -7.6029379    4.4432218 
     288    12.094555   -7.6577957    4.4367597 
     289    12.141547   -7.7048809     4.436666 
     290    12.186442   -7.7497923    4.4366497 
     291     12.22863    -7.798071    4.4305591 
     292    12.267942   -7.8377828    4.4301597 
     293    12.304218   -7.8740728    4.4301456 
     294    12.337326   -7.9068102    4.4305161 
     295    12.367162   -7.9366566    4.4305056 
     296    12.393656    -7.963158    4.4304976 
     297    12.416781   -7.9862878    4.4304927 
     298    12.436562   -8.0060701    4.4304915 
     299    12.453082    -8.022588    4.4304944 
     300    12.466494   -8.0359914    4.4305022 
     301     12.47702   -8.0465047    4.4305151 
     302    12.484967    -8.054049    4.4309184 
     303    12.490727    -8.059784    4.4309427 
     304    12.494775   -8.0638021    4.4309729 
     305    12.497678   -8.0666692    4.4310089 
     306    12.500126   -8.0918729    4.4082534 
     307    12.502856   -8.1006354    4.4022206 
     308    12.506621   -8.1043504    4.4022704 
     309    12.512262   -8.1095556    4.4027063 
     310     12.52066   -8.1182835    4.4023764 
     311    12.532705   -8.1298918    4.4028135 
     312    12.549278   -8.1460298    4.4032484 
     313     12.57122   -8.1683068    4.4029128 
     314    12.599439   -8.1965011    4.4029382 
     315    12.634623   -8.2312641    4.4033592 
     316    12.677208   -8.2738215    4.4033863 
     317    12.727628   -8.3246077    4.4030206 
     318    12.786171   -8.3831425    4.4030285 
     319    12.852961   -8.4499351    4.4030262 
     320    12.927961   -8.5249469    4.4030137 
     321    13.010969   -8.6075931    4.4033762 
     322    13.101632   -8.6982866    4.4033456 
     323    13.199525   -8.8288434    4.3706818 
     324    13.304039   -8.9394785    4.3645606 
     325    13.414385    -9.049873    4.3645122 
     326     13.52982   -9.1490167     4.380803 
     327    13.649502   -9.2687513    4.3807508 
     328     13.77252   -9.3978993    4.3746209 
     329     13.89801   -9.5234387    4.3745712 
     330    14.025124   -9.6505991    4.3745247 
     331    14.153076   -9.7846788    4.3683973 
     332    14.281126   -9.9127666    4.3683598 
     333    14.408633   -10.023616    4.3850174 
     334    14.535005   -10.150013    4.3849911 
     335    14.659706   -10.269057    4.3906488 
     336    14.782318   -10.392068    4.3902499 
     337    14.902508   -10.506179    4.3963288 
     338    15.020031   -10.629777    4.3902541 
     339    15.134696   -10.744826    4.3898699 
     340    15.246391   -10.856901    4.3894895 
     341    15.355075   -10.965194    4.3898808 
     342    15.460763   -11.071255    4.3895077 
     343    15.563517   -11.173997      4.38952 
     344    15.663461   -11.280007    4.3834536 
     345    15.760758   -11.393609    4.3671494 
     346    15.855592   -11.471757    4.3838348 
     347    15.948145   -11.580611    4.3675341 
     348     16.03362   -11.666481     4.367139 
     349    16.105438   -11.738845    4.3665931 
     350    16.160299   -11.800105    4.3601942 
     351    16.194497   -11.834686    4.3598111 
     352    16.203589   -11.827907    4.3756816 
     353    16.182561   -11.807434     4.375127 
     354    16.125799   -11.745515    4.3802835 
     355    16.027697   -11.647892    4.3798051 
     356    15.882988   -11.509783    4.3732048 
     357    15.686931   -11.314181    4.3727497 
     358    15.436599   -11.057649    4.3789502 
     359    15.132458   -10.753847     4.378611 
     360    14.780079   -10.417245    4.3628342 
     361    14.391712   -10.027861    4.3638515 
     362    13.987607   -9.6385227    4.3490844 
     363    13.596258   -9.2287518    4.3675067 
     364    13.252609   -8.8827772    4.3698322 
     365    12.994353   -8.6219418    4.3724114 
     366    12.856267   -8.4822307    4.3740365 
     367    12.863716   -8.4889926     4.374723 
     368    13.027339   -8.6526507    4.3746887 
     369     13.34068   -8.9674132    4.3732672 
     370    13.781621   -9.4104511    4.3711702 
     371    14.317141   -9.9650247    4.3521159 
     372    14.909596   -10.559654    4.3499428 
     373    15.522013   -11.190388    4.3316252 
     374    16.122425   -11.798119    4.3243056 
     375    16.687133   -12.363509    4.3236244 
     376    17.200962   -12.861631    4.3393308 
     377    17.654908   -13.332182     4.322726 
     378    18.044342   -13.721347    4.3229945 
     379    18.369029   -14.030154    4.3388743 
     380    18.631734   -14.324737    4.3069974 
     381    18.836247    -14.54477    4.2914775 
     382    18.986684   -14.694844      4.29184 
     383    19.087219   -14.789378    4.2978411 
     384    19.141814   -14.837659    4.3041547 
     385    19.154112   -14.855409    4.2987028 
     386    19.127618   -14.812756    4.3148622 
     387    19.065854    -14.75154    4.3143143 
     388     18.97463    -14.65874    4.3158898 
     389     18.86124   -14.545625    4.3156157 
     390    18.730619   -14.414428    4.3161907 
     391    18.586759   -14.270676     4.316083 
     392    18.434905   -14.124539    4.3103666 
     393     18.28149   -13.986989    4.2945006 
     394    18.133875   -13.837749    4.2961258 
     395    18.000008   -13.703778      4.29623 
     396    17.887998   -13.591301    4.2966976 
     397    17.805533   -13.508429    4.2971044 
     398    17.759276   -13.461863    4.2974124 
     399    17.754298   -13.456707    4.2975908 
     400    17.793625   -13.496004    4.2976204 
     401    17.877948   -13.580836    4.2971122 
     402    18.005553   -13.708709    4.2968442 
     403     18.17247    -13.87563    4.2968407 
     404    18.372824    -14.07684    4.2959836 
     405     18.59934   -14.310335    4.2890058 
     406    18.843923   -14.555062     4.288861 
     407     19.09826   -14.809899    4.2883608 
     408    19.354393    -15.07255    4.2818433 
     409    19.605166   -15.323682    4.2814835 
     410    19.844553   -15.562953    4.2816002 
     411    20.067927   -15.803623    4.2643041 
     412    20.272031    -16.00819     4.263841 
     413    20.454952   -16.191106    4.2638462 
     414    20.616098   -16.352175    4.2639231 
     415    20.755989   -16.498011    4.2579783 
     416    20.876047   -16.617508    4.2585389 
     417    20.978449   -16.735958     4.242491 
     418    21.065794   -16.823082    4.2427122 
     419    21.140905   -16.898352    4.2425532 
     420    21.206788   -16.964015    4.2427736 
     421    21.266425   -17.023828    4.2425977 
     422    21.322698    -17.06395    4.2587477 
     423    21.378209   -17.118909    4.2592999 
     424     21.43647   -17.176593    4.2598778 
     425    21.501152   -17.241203    4.2599491 
     426    21.574057   -17.314056    4.2600004 
     427    21.656036   -17.395898    4.2601379 
     428    21.749339   -17.488852     4.260487 
     429    21.855546   -17.589035    4.2665102 
     430     21.97401   -17.707559    4.2664506 
     431    22.103901   -17.853854    4.2500467 
     432    22.244191   -17.994608    4.2495834 
     433    22.393664   -18.143783    4.2498804 
     434    22.551055   -18.284564    4.2664911 
     435    22.714969   -18.448571    4.2663978 
     436    22.883913   -18.617224    4.2666888 
     437    23.056437   -18.789838    4.2665988 
     438    23.231127    -18.96423    4.2668973 
     439    23.406647   -19.139825    4.2668222 
     440    23.581779   -19.321092    4.2606861 
     441    23.755444    -19.49558     4.259864 
     442     23.92679   -19.682855    4.2439353 
     443    24.095122   -19.851213    4.2439089 
     444    24.259912    -20.01563    4.2442817 
     445    24.420903   -20.177003    4.2439004 
     446    24.578063   -20.334146    4.2439176 
     447    24.731637   -20.509701    4.2219362 
     448    24.882005   -20.659644    4.2223609 
     449    25.029651   -20.807239    4.2224112 
     450    25.175261   -20.952794    4.2224669 
     451    25.319692   -21.113524    4.2061683 
     452    25.463791   -21.257561    4.2062298 
     453    25.608343   -21.402054    4.2062895 
     454     25.75424   -21.537277    4.2169626 
     455    25.902261    -21.67917    4.2230913 
     456    26.053052   -21.846609    4.2064433 
     457    26.207159   -21.994234    4.2129248 
     458     26.36504   -22.152075    4.2129645 
     459    26.526924   -22.313949    4.2129747 
     460    26.692794    -22.47982    4.2129732 
     461    26.862539   -22.649963    4.2125766 
     462    27.035865   -22.823314    4.2125504 
     463    27.212279   -23.000152    4.2121273 
     464    27.391103   -23.179411    4.2116916 
     465    27.571533   -23.376206    4.1953264 
     466    27.752513   -23.556878     4.195635 
     467    27.932752   -23.743277    4.1894748 
     468    28.110871   -23.921491    4.1893793 
     469    28.285414   -24.111699    4.1737147 
     470    28.454806   -24.293337    4.1614691 
     471    28.617379   -24.472348    4.1450313 
     472    28.771447   -24.626141    4.1453056 
     473    28.915324   -24.770125    4.1451986 
     474    29.047417   -24.902321    4.1450962 
     475    29.166235   -25.021234    4.1450004 
     476    29.270414   -25.125119    4.1452949 
     477    29.358753   -25.219605    4.1391487 
     478     29.43022   -25.290754    4.1394661 
     479    29.483976   -25.344565    4.1394116 
     480     29.51945   -25.363752    4.1556978 
     481    29.536275   -25.380603    4.1556715 
     482    29.534361   -25.401097    4.1332641 
     483    29.513878   -25.380607    4.1332704 
     484    29.475241   -25.335872    4.1393689 
     485    29.419253   -25.263496    4.1557569 
     486    29.346968   -25.191151    4.1558177 
     487    29.259771   -25.120231    4.1395408 
     488    29.159413   -25.029993    4.1294191 
     489    29.047802   -24.918271    4.1295306 
     490    28.927078   -24.797808      4.12927 
     491    28.799735   -24.680605      4.11913 
     492    28.668327    -24.54906    4.1192672 
     493    28.535459   -24.399369    4.1360899 
     494    28.403756   -24.267536    4.1362201 
     495    28.275771   -24.154906     4.120865 
     496     28.15386   -24.032894     4.120966 
     497    28.040041   -23.919379    4.1206612 
     498     27.93608   -23.815365     4.120715 
     499    27.843365    -23.72909    4.1142756 
     500    27.762857     -23.6482    4.1146567 
     501    27.695077   -23.586529     4.108548 
     502    27.640121   -23.531629    4.1084919 
     503    27.597679   -23.489266    4.1084135 
     504     27.56718   -23.443374    4.1238065 
     505    27.547697   -23.423999    4.1236985 
     506    27.538094   -23.404271    4.1338234 
     507    27.537145   -23.403435    4.1337102 
     508    27.543559    -23.40957     4.133989 
     509    27.556202   -23.428378    4.1278236 
     510    27.574117   -23.446749    4.1273679 
     511     27.59661   -23.468907    4.1277033 
     512    27.623329   -23.479331    4.1439981 
     513    27.654281   -23.510277    4.1440044 
     514    27.689915   -23.536039     4.153876 
     515    27.730954   -23.577025    4.1539294 
     516    27.778331   -23.624334    4.1539971 
     517    27.833222   -23.679152    4.1540706 
     518    27.896954    -23.75301    4.1439441 
     519    27.970628   -23.826245    4.1443827 
     520     28.05498   -23.910949    4.1440306 
     521    28.150477   -24.006444     4.144033 
     522    28.257112   -24.113494    4.1436174 
     523    28.374363   -24.231191    4.1431721 
     524    28.501201   -24.358117    4.1430838 
     525    28.636159   -24.493183     4.142976 
     526    28.777441   -24.634583    4.1428581 
     527    28.923068   -24.780328    4.1427406 
     528     29.07103   -24.927628    4.1434013 
     529    29.219433   -25.075737    4.1436968 
     530    29.366636   -25.223002    4.1436343 
     531    29.511419   -25.383805    4.1276143 
     532    29.652893   -25.525282    4.1276112 
     533     29.79052   -25.662499    4.1280205 
     534    29.924254   -25.796183    4.1280714 
     535    30.054419   -25.932353    4.1220659 
     536    30.181625   -26.059473    4.1221513 
     537    30.306686   -26.184825    4.1218605 
     538     30.43054   -26.308585    4.1219555 
     539    30.554165   -26.426045    4.1281199 
     540    30.678506   -26.567418    4.1110878 
     541    30.804343    -26.68711    4.1172325 
     542    30.932406   -26.815412    4.1169934 
     543    31.063019   -26.945993    4.1170258 
     544    31.196076   -27.095356    4.1007198 
     545    31.331361   -27.230648    4.1007136 
     546    31.468376   -27.367686    4.1006898 
     547    31.606434   -27.521693    4.0847408 
     548    31.744575   -27.660269    4.0843063 
     549    31.881622   -27.791302      4.09032 
     550    32.016346   -27.926088    4.0902586 
     551    32.147473   -28.057275    4.0901984 
     552    32.273761   -28.183618    4.0901435 
     553    32.394071   -28.310036    4.0840348 
     554      32.5074   -28.424167    4.0832336 
     555    32.612921   -28.529709    4.0832121 
     556    32.710037   -28.626445    4.0835913 
     557    32.798387   -28.714785    4.0836021 
     558    32.877853   -28.794226     4.083627 
     559    32.948539   -28.864491    4.0840484 
     560    33.010753   -28.926657    4.0840955 
     561    33.064959   -28.980425    4.0845333 
     562    33.111759   -29.010461    4.1012975 
     563    33.151803   -29.050448    4.1013548 
     564    33.185879   -29.101202    4.0846776 
     565    33.214686   -29.145899    4.0687867 
     566    33.238664   -29.175913     4.062751 
     567     33.25821   -29.195431     4.062779 
     568    33.273613   -29.210818    4.0627949 
     569    33.285028    -29.23438    4.0506478 
     570    33.292428    -29.24179    4.0506383 
     571    33.295616   -29.239309    4.0563077 
     572    33.294231   -29.237957    4.0562749 
     573    33.287759    -29.23191    4.0558489 
     574    33.275609   -29.236541    4.0390685 
     575    33.257073   -29.212359    4.0447141 
     576    33.231317   -29.186663    4.0446538 
     577    33.197499   -29.153291     4.044208 
     578    33.154791   -29.110261    4.0445305 
     579    33.102398   -29.057926     4.044472 
     580    33.039596   -28.995178    4.0444188 
     581    32.965771   -28.921782    4.0439889 
     582     32.88046   -28.830048    4.0504117 
     583    32.783359   -28.732972    4.0503876 
     584    32.674361   -28.630059    4.0443021 
     585    32.553593   -28.509287     4.044306 
     586    32.421463   -28.360822    4.0606414 
     587    32.278592   -28.217917    4.0606749 
     588     32.12581   -28.065088    4.0607216 
     589    31.964239   -27.919779    4.0444599 
     590    31.795152   -27.750626    4.0445254 
     591    31.619972   -27.592115    4.0278567 
     592    31.440188   -27.412646    4.0275414 
     593    31.257249   -27.229644     4.027605 
     594    31.072597   -27.044938    4.0276594 
     595    30.887594   -26.876234    4.0113602 
     596    30.703398   -26.692011    4.0113876 
     597    30.520937   -26.509921    4.0110156 
     598     30.34097   -26.329955    4.0110152 
     599    30.164112   -26.137163    4.0269493 
     600    29.990818   -25.963883     4.026935 
     601    29.821456    -25.79415    4.0273064 
     602    29.656472   -25.629168    4.0273039 
     603    29.496447   -25.469129    4.0273182 
     604    29.342213   -25.315241    4.0269718 
     605    29.195054   -25.190734    4.0043196 
     606    29.056599   -25.035828    4.0207716 
     607    28.928761   -24.907858    4.0209025 
     608    28.813966   -24.786825    4.0271412 
     609    28.715079   -24.687368    4.0277108 
     610    28.635266   -24.623674    4.0115918 
     611    28.577852   -24.566057    4.0117945 
     612    28.546118   -24.533749    4.0123688 
     613    28.543103   -24.530571    4.0125312 
     614    28.571347   -24.558697    4.0126498 
     615     28.63266   -24.619565    4.0130946 
     616    28.727936   -24.720923    4.0070135 
     617     28.85698   -24.850429    4.0065517 
     618    29.018442   -25.012037    4.0064055 
     619    29.209895   -25.203696    4.0061993 
     620    29.427951    -25.42162    4.0063313 
     621    29.668475   -25.662423    4.0060516 
     622    29.926848   -25.921084    4.0057635 
     623    30.198267   -26.192781    4.0054858 
     624    30.478026   -26.472792    4.0052346 
     625    30.761763    -26.76282    3.9989431 
     626    31.045655   -27.063207    3.9824484 
     627    31.326457   -27.344135    3.9823227 
     628    31.601554   -27.619315    3.9822389 
     629    31.868988   -27.886797    3.9821904 
     630    32.127343   -28.145175    3.9821686 
     631     32.37567   -28.405635    3.9700348 
     632     32.61327   -28.643232    3.9700376 
     633    32.839564   -28.869525    3.9700396 
     634    33.054059   -29.084025     3.970034 
     635    33.256244   -29.269933    3.9863106 
     636    33.445456   -29.459178    3.9862776 
     637    33.620856   -29.640304    3.9805512 
     638    33.781558   -29.817474    3.9640837 
     639    33.926438   -29.962427    3.9640108 
     640    34.054212   -30.089895    3.9643168 
     641    34.163674   -30.199436    3.9642383 
     642    34.253689   -30.289522    3.9641668 
     643    34.323298   -30.359189    3.9641095 
     644    34.371821   -30.407748    3.9640738 
     645    34.398965   -30.434514    3.9644509 
     646    34.404923    -30.44006    3.9648629 
     647    34.390465   -30.424766    3.9656993 
     648    34.357004   -30.391193    3.9658111 
     649    34.306631    -30.34028    3.9663509 
     650    34.242132    -30.28127    3.9608624 
     651    34.166922   -30.205825     3.961097 
     652    34.084955   -30.123596    3.9613597 
     653    34.000661   -30.022699    3.9779619 
     654    33.918647   -29.940786    3.9778614 
     655    33.843502   -29.865366    3.9781361 
     656    33.779681   -29.801295    3.9783859 
     657    33.731256   -29.752655    3.9786015 
     658    33.701762   -29.722977     3.978785 
     659    33.694079   -29.731476    3.9626031 
     660    33.710284   -29.747601    3.9626832 
     661     33.75167   -29.788568     3.963102 
     662    33.818838    -29.85574    3.9630983 
     663    33.911729   -29.948667    3.9630619 
     664    34.029711   -30.067098    3.9626133 
     665    34.171672   -30.209143    3.9625285 
     666    34.336179   -30.390104    3.9460755 
     667    34.521437   -30.575473    3.9459634 
     668    34.725358   -30.785597    3.9397604 
     669    34.945742   -30.999648    3.9460942 
     670    35.180245   -31.246417    3.9338282 
     671     35.42638   -31.492686    3.9336938 
     672    35.681616   -31.731349    3.9502662 
     673    35.943343   -31.987137    3.9562059 
     674    36.208902   -32.236871    3.9720312 
     675    36.475597   -32.503705    3.9718919 
     676    36.740685   -32.768931    3.9717537 
     677    37.001499   -33.029498    3.9720014 
     678     37.25542   -33.283934    3.9714858 
     679    37.499906   -33.528546    3.9713606 
     680    37.732533   -33.761289    3.9712435 
     681     37.95103   -33.979894     3.971136 
     682    38.153296   -34.182256    3.9710396 
     683    38.337422   -34.366467    3.9709553 
     684     38.50173   -34.530847    3.9708834 
     685    38.644773   -34.673949    3.9708238 
     686    38.765341   -34.794181    3.9711603 
     687    38.862457   -34.891332    3.9711241 
     688    38.935411   -34.981037    3.9543744 
     689    38.983673   -35.029314    3.9543592 
     690    39.006886   -35.052532    3.9543537 
     691    39.004972   -35.056687    3.9482854 
     692    38.978034   -35.029734    3.9482999 
     693    38.926366   -34.971963    3.9544032 
     694    38.850518    -34.89646    3.9540583 
     695    38.751289   -34.803256    3.9480328 
     696    38.629758   -34.682037    3.9477207 
     697    38.487314   -34.539887    3.9474269 
     698    38.325693   -34.378153    3.9475395 
     699    38.147018   -34.199341    3.9476772 
     700    37.953823   -34.005981    3.9478416 
     701    37.749074    -33.80104     3.948034 
     702    37.536178   -33.587925    3.9482538 
     703    37.318966   -33.370467     3.948499 
     704    37.101853   -33.142121    3.9597315 
     705    36.889453   -32.912661    3.9767922 
     706    36.686423   -32.676271    4.0101517 
     707    36.497487   -32.493503    4.0039839 
     708    36.327286   -32.338977    3.9883093 
     709    36.180282    -32.17543     4.004852 
     710    36.060454   -32.038706    4.0217485 
     711    35.971156   -31.949255    4.0219008 
     712    35.915038   -31.902881    4.0121568 
     713    35.893863   -31.897594    3.9962691 
     714    35.908266   -31.928357    3.9799097 
     715    35.957889   -31.978067    3.9798221 
     716    36.041486   -32.061421    3.9800654 
     717    36.156982   -32.177102    3.9798795 
     718    36.301578   -32.315834    3.9857435 
     719     36.47188   -32.486382    3.9854978 
     720    36.664058    -32.67882    3.9852374 
     721    36.874019   -32.889048    3.9849711 
     722     37.09755   -33.119304    3.9782464 
     723    37.330408   -33.352035    3.9783731 
     724    37.568418   -33.590291    3.9781271 
     725    37.807559   -33.829664    3.9778949 
     726    38.044035   -34.088366    3.9556693 
     727    38.274244   -34.318775    3.9554683 
     728    38.494798   -34.539514    3.9552836 
     729    38.702597   -34.747482    3.9551155 
     730    38.894812   -34.940616    3.9541955 
     731    39.068895   -35.115217     3.953678 
     732      39.2226   -35.269036    3.9535638 
     733    39.354003   -35.400533    3.9534703 
     734    39.461537   -35.508522    3.9530154 
     735    39.544013   -35.591045    3.9529687 
     736    39.600724   -35.631441     3.969283 
     737    39.631336   -35.662046    3.9692905 
     738    39.635915   -35.666972    3.9689437 
     739    39.615078   -35.646068    3.9690102 
     740    39.569934   -35.600059    3.9698747 
     741    39.502097   -35.515389    3.9867079 
     742     39.41369   -35.432518    3.9811723 
     743    39.307245   -35.319816    3.9874297 
     744    39.185677   -35.198428    3.9872487 
     745     39.05228   -35.064426    3.9878539 
     746    38.910681   -34.906669    4.0040114 
     747    38.764659   -34.760408    4.0042512 
     748    38.618056   -34.613565    4.0044908 
     749    38.474742   -34.470018    4.0047233 
     750     38.33847   -34.333528     4.004942 
     751    38.212842   -34.197081    4.0157607 
     752    38.101063   -34.085129    4.0159341 
     753    38.005859    -33.98978    4.0160783 
     754    37.929555   -33.913365    4.0161908 
     755    37.873959   -33.857689    4.0162699 
     756    37.840332   -33.824016    4.0163155 
     757    37.829386   -33.813058     4.016328 
     758    37.841288   -33.824596    4.0166924 
     759    37.875674   -33.859032     4.016642 
     760    37.931662   -33.914716    4.0169457 
     761     38.00788   -33.991426    4.0164543 
     762    38.102497   -34.086175    4.0163215 
     763    38.213412   -34.230008    3.9834039 
     764    38.338044   -34.371104    3.9669406 
     765    38.473393   -34.522191    3.9512019 
     766    38.616315   -34.665302    3.9510126 
     767    38.763537   -34.812712    3.9508255 
     768    38.911863   -34.961214    3.9506483 
     769    39.058319   -35.091145    3.9671745 
     770    39.200094   -35.233055    3.9670385 
     771    39.334634   -35.367702    3.9669318 
     772    39.459982   -35.503411    3.9565705 
     773    39.574613   -35.618465    3.9561484 
     774    39.677477   -35.720947    3.9565295 
     775    39.768197   -35.794976    3.9732216 
     776    39.846924   -35.890315    3.9566094 
     777    39.914195   -35.963573    3.9506217 
     778    39.970979   -36.020241    3.9507385 
     779    40.018696   -36.061716    3.9569799 
     780    40.059022   -36.101896    3.9571261 
     781    40.093821   -36.120241    3.9735799 
     782    40.125046   -36.151702    3.9733446 
     783    40.154602   -36.181115    3.9734865 
     784    40.184325    -36.21071    3.9736153 
     785    40.215873   -36.242146    3.9737265 
     786    40.250649   -36.276831    3.9738176 
     787    40.289756   -36.315871    3.9738857 
     788    40.333968   -36.360037    3.9739308 
     789    40.383842   -36.409451    3.9743907 
     790     40.43949   -36.465097    3.9743937 
     791    40.500606   -36.526227    3.9743794 
     792    40.566748   -36.592397    3.9743515 
     793    40.637274   -36.662575     3.974699 
     794     40.71139   -36.736735    3.9746549 
     795    40.788211   -36.813603     3.974608 
     796    40.866812   -36.892251    3.9745612 
     797     40.94627   -36.971753     3.974517 
     798    41.025707   -37.051229    3.9744774 
     799    41.104314   -37.129871    3.9744437 
     800     41.18138   -37.207348    3.9740321 
     801    41.256318   -37.305063    3.9512543 
     802    41.328745   -37.361645    3.9671003 
     803    41.398264   -37.431553    3.9667114 
     804      41.4645   -37.497405    3.9670959 
     805    41.527309   -37.553746    3.9735632 
     806    41.584935    -37.61104    3.9738954 
     807    41.635441   -37.661569    3.9738721 
     808    41.678562   -37.694535    3.9840275 
     809    41.713981    -37.72959    3.9843907 
     810    41.741294   -37.756924    3.9843701 
     811    41.760261   -37.775911    3.9843505 
     812    41.770685   -37.786352    3.9843325 
     813    41.772419   -37.788102    3.9843169 
     814    41.765462   -37.770892    3.9945698 
     815    41.749818   -37.755254    3.9945639 
     816    41.725532   -37.730966     3.994566 
     817    41.693007   -37.714328     3.978679 
     818    41.651802   -37.673447    3.9783557 
     819     41.60092   -37.644536    3.9563836 
     820    41.540428   -37.583628    3.9568002 
     821    41.471145   -37.514679    3.9564661 
     822    41.394266   -37.437747    3.9565185 
     823    41.311257   -37.348587      3.96267 
     824    41.223803   -37.261032    3.9627703 
     825    41.133838   -37.164869    3.9689681 
     826    41.043417   -37.074338    3.9690787 
     827    40.954651    -37.00783    3.9468215 
     828    40.869505   -36.922597    3.9469084 
     829    40.789642    -36.84267    3.9469718 
     830    40.716408   -36.769404    3.9470042 
     831    40.650685   -36.703683    3.9470016 
     832    40.592825   -36.645862     3.946963 
     833    40.542652    -36.60184    3.9408119 
     834    40.499462   -36.559135    3.9403275 
     835    40.462095   -36.521506    3.9405884 
     836    40.429059   -36.489377    3.9396818 
     837     40.39865    -36.46936    3.9292899 
     838    40.369112   -36.456277    3.9128354 
     839    40.338535   -36.419775    3.9187596 
     840    40.304941   -36.386711    3.9182306 
     841    40.266563   -36.364824    3.9017388 
     842    40.221672   -36.325784    3.8958884 
     843     40.16854   -36.272784    3.8957558 
     844      40.1057   -36.194097    3.9116022 
     845    40.031693   -36.120594    3.9110994 
     846    39.945106   -36.040205     3.904901 
     847    39.844842   -35.940032    3.9048093 
     848    39.730078   -35.818875     3.911203 
     849    39.600386   -35.688839    3.9115473 
     850      39.4558   -35.544257     3.911543 
     851    39.296898   -35.384936     3.911962 
     852    39.124853     -35.2132    3.9116531 
     853    38.941459   -35.046005    3.8954543 
     854     38.74907   -34.853466    3.8956038 
     855    38.550526   -34.654745    3.8957813 
     856    38.349095   -34.459196    3.8898988 
     857    38.148291   -34.258186    3.8901052 
     858    37.952983   -34.062127    3.8908569 
     859    37.768041   -33.877016    3.8910248 
     860    37.596791   -33.721591    3.8752003 
     861    37.442044   -33.566702    3.8753425 
     862     37.30627   -33.430801    3.8754691 
     863    37.191697   -33.309274    3.8824226 
     864    37.100243   -33.217721    3.8825213 
     865    37.033582   -33.156643    3.8769394 
     866    36.993086   -33.116071    3.8770154 
     867    36.979906   -33.119497    3.8604094 
     868    36.994956    -33.15685    3.8381056 
     869    37.038873   -33.207038    3.8318348 
     870     37.11316   -33.265036    3.8481244 
     871    37.218655   -33.386898    3.8317566 
     872    37.354291   -33.522222    3.8320692 
     873    37.518513   -33.686158    3.8323546 
     874    37.709347   -33.876734    3.8326129 
     875    37.924364   -34.091899    3.8324645 
     876    38.160745   -34.328061    3.8326841 
     877     38.41545   -34.599217    3.8162334 
     878    38.685191   -34.852816    3.8323749 
     879    38.966634   -35.118599    3.8480351 
     880    39.256445   -35.408956    3.8474891 
     881    39.551376   -35.710485    3.8408913 
     882    39.848481   -36.007717    3.8407638 
     883    40.145059   -36.304019    3.8410398 
     884    40.438756   -36.591719     3.847037 
     885    40.727488   -36.880523    3.8469651 
     886    41.009425   -37.162133     3.847292 
     887    41.282998   -37.435752    3.8472458 
     888    41.546833   -37.699625     3.847208 
     889    41.799753   -37.968929    3.8308245 
     890    42.040668    -38.20949    3.8311778 
     891    42.268552   -38.443479    3.8250729 
     892     42.48248   -38.657817    3.8246637 
     893    42.681605   -38.850518    3.8310876 
     894    42.865125    -39.03406    3.8310653 
     895    43.032285   -39.201624    3.8306619 
     896    43.182426   -39.335465    3.8469613 
     897    43.314981    -39.45211    3.8628712 
     898    43.429455   -39.566595    3.8628604 
     899    43.525447   -39.662208    3.8632394 
     900    43.602695   -39.745145    3.8575495 
     901    43.661136   -39.819896      3.84124 
     902    43.700715   -39.859466    3.8412495 
     903    43.721416   -39.880151    3.8412649 
     904    43.723455   -39.882168     3.841287 
     905    43.707201   -39.859813    3.8473881 
     906    43.673199   -39.842124     3.831075 
     907    43.622091   -39.790969    3.8311212 
     908    43.554662   -39.723484    3.8311778 
     909    43.471927   -39.640681    3.8312463 
     910    43.375156   -39.560112    3.8150439 
     911    43.265802   -39.450661    3.8151416 
     912     43.14552    -39.32988    3.8156401 
     913    43.016311   -39.194113    3.8221981 
     914    42.880404    -39.05844    3.8219644 
     915    42.740242   -38.918114    3.8221281 
     916    42.598521   -38.776219    3.8223027 
     917    42.458091   -38.635609    3.8224823 
     918    42.321859   -38.499201    3.8226587 
     919    42.192676   -38.375929    3.8167473 
     920    42.073178   -38.255906    3.8172722 
     921    41.965775   -38.164649     3.801126 
     922    41.872255   -38.070676     3.801579 
     923    41.793656   -37.991669    3.8019871 
     924    41.730475    -37.93459    3.7958852 
     925    41.682498   -37.886679    3.7958193 
     926    41.648834   -37.853117    3.7957166 
     927    41.628043   -37.832456    3.7955868 
     928    41.618264   -37.822822    3.7954413 
     929    41.617463   -37.805824    3.8116392 
     930     41.62361   -37.822493    3.8011173 
     931    41.634546   -37.843773    3.7907734 
     932    41.648292   -37.873857    3.7744347 
     933    41.663188    -37.88845    3.7747384 
     934      41.6779    -37.90969    3.7682105 
     935    41.691535   -37.923356    3.7681789 
     936    41.703586   -37.919152    3.7844336 
     937    41.713777   -37.929342    3.7844342 
     938    41.722099    -37.93733    3.7847693 
     939    41.728595   -37.943817    3.7847785 
     940     41.73322   -37.949205    3.7840154 
     941    41.736015   -37.952003    3.7840122 
     942    41.737003   -37.936744    3.8002588 
     943    41.736069   -37.919463    3.8166065 
     944    41.732759   -37.916193    3.8165665 
     945    41.726521   -37.893732    3.8327886 
     946    41.716702   -37.883588    3.8331141 
     947    41.702504    -37.86945    3.8330533 
     948    41.683195   -37.855876     3.827319 
     949    41.658099   -37.831216    3.8268829 
     950    41.626677   -37.799443    3.8272332 
     951    41.588684   -37.745157    3.8435271 
     952    41.544178   -37.701022    3.8431563 
     953    41.493581   -37.649997    3.8435836 
     954    41.437798   -37.594524    3.8432736 
     955    41.378199    -37.53482    3.8433788 
     956    41.316599   -37.473088    3.8435109 
     957     41.25522   -37.405868    3.8493522 
     958    41.196552   -37.347036    3.8495165 
     959    41.143216   -37.293534    3.8496822 
     960    41.097873   -37.231725     3.866148 
     961    41.063009   -37.213055    3.8499546 
     962    41.040742   -37.190682    3.8500605 
     963    41.032799   -37.199041    3.8337583 
     964    41.040287   -37.206499     3.833788 
     965    41.063621    -37.22946    3.8341618 
     966    41.102664   -37.268549    3.8341145 
     967    41.156693   -37.322657     3.834036 
     968    41.224493   -37.390559    3.8339336 
     969    41.304459   -37.470643    3.8338158 
     970    41.394737   -37.567114    3.8276224 
     971    41.493441   -37.649725    3.8437162 
     972    41.598599   -37.738679    3.8599196 
     973    41.708185   -37.848368    3.8598175 
     974    41.820425   -37.961076    3.8593493 
     975    41.933868   -38.080667    3.8532006 
     976    42.047328    -38.19417    3.8531587 
     977     42.15991   -38.306387    3.8535226 
     978     42.27107   -38.417163    3.8539076 
     979    42.380622   -38.510354    3.8702671 
     980    42.488609    -38.61261    3.8759999 
     981     42.59525   -38.719206    3.8760444 
     982    42.700976   -38.818805    3.8821714 
     983    42.806316   -38.924094    3.8822224 
     984    42.911813   -39.029159    3.8826539 
     985    43.018008   -39.129266    3.8887424 
     986    43.125275    -39.23651    3.8887656 
     987    43.233753   -39.344982    3.8887716 
     988    43.343397   -39.454639    3.8887583 
     989    43.453896   -39.565172    3.8887246 
     990     43.56469   -39.670304    3.8943858 
     991    43.674981   -39.797049     3.877932 
     992     43.78362   -39.906163    3.8774565 
     993    43.889183   -40.011066    3.8781169 
     994    43.990118   -40.111737    3.8783805 
     995    44.084775   -40.222791    3.8619844 
     996    44.171313   -40.309473    3.8618392 
     997    44.247724   -40.392111    3.8556128 
     998    44.311966   -40.456522    3.8554438 
     999    44.361969   -40.490359    3.8716101 
    1000    44.395653   -40.540527    3.8551256 
Loop time of 0.244281 on 1 procs for 1000 steps with 125 atoms

Pair  time (%) = 0.0335052 (13.7159)
Bond  time (%) = 0.00117016 (0.479022)
Neigh time (%) = 0.00546336 (2.23651)
Comm  time (%) = 0.0103993 (4.25713)
Outpt time (%) = 0.186746 (76.4471)
Other time (%) = 0.00699711 (2.86437)

Nlocal:    125 ave 125 max 125 min
Histogram: 1 0 0 0 0 0 0 0 0 0
Nghost:    363 ave 363 max 363 min
Histogram: 1 0 0 0 0 0 0 0 0 0
Neighs:    647 ave 647 max 647 min
Histogram: 1 0 0 0 0 0 0 0 0 0

Total # of neighbors = 647
Ave neighs/atom = 5.176
Ave special neighs/atom = 0.096
Neighbor list builds = 34
Dangerous builds = 0

